p cnf 308 704
-1 10 0 
1 262 0 
-80 -81 83 0 
-80 81 145 0 
-81 82 0 
-81 73 0 
-82 9 0 
-83 -84 0 
-83 84 107 0 
-84 85 0 
-84 105 0 
-85 86 0 
-85 103 0 
-86 87 0 
-86 101 0 
-87 88 0 
-87 99 0 
-88 89 0 
-88 97 0 
-89 90 0 
-89 95 0 
-10 -11 12 0 
-10 11 59 0 
-90 91 0 
-90 93 0 
-91 -92 0 
-93 -94 0 
-95 -96 0 
-97 -98 0 
-99 -100 0 
-11 4 0 
-101 -102 0 
-103 -104 0 
-105 106 0 
-107 108 0 
-107 141 0 
-108 109 0 
-108 137 0 
-109 110 0 
-109 133 0 
-110 111 0 
-110 129 0 
-111 112 0 
-111 125 0 
-112 113 0 
-112 121 0 
-113 114 0 
-113 117 0 
-114 -115 0 
-115 116 0 
-116 -92 0 
-117 -118 0 
-118 -119 -120 0 
-118 119 120 0 
-119 94 0 
-12 13 0 
-12 57 0 
-120 92 0 
-121 -122 0 
-122 -123 -124 0 
-122 123 124 0 
-123 96 0 
-124 94 0 
-124 120 0 
-125 -126 0 
-126 -127 -128 0 
-126 127 128 0 
-127 98 0 
-128 96 0 
-128 124 0 
-129 -130 0 
-13 14 0 
-13 55 0 
-130 -131 -132 0 
-130 131 132 0 
-131 100 0 
-132 98 0 
-132 128 0 
-133 -134 0 
-134 -135 -136 0 
-134 135 136 0 
-135 102 0 
-136 100 0 
-136 132 0 
-137 -138 0 
-138 -139 -140 0 
-138 139 140 0 
-139 104 0 
-14 15 0 
-14 53 0 
-140 102 0 
-140 136 0 
-141 142 0 
-142 -143 -144 0 
-142 143 144 0 
-143 106 0 
-144 104 0 
-144 140 0 
-145 146 0 
-145 159 0 
-146 147 0 
-146 158 0 
-147 148 0 
-147 157 0 
-148 149 0 
-148 156 0 
-149 150 0 
-149 155 0 
-15 16 0 
-15 51 0 
-150 151 0 
-150 154 0 
-151 152 0 
-151 153 0 
-152 -92 0 
-153 -94 0 
-154 -96 0 
-155 -98 0 
-156 -100 0 
-157 -102 0 
-158 -104 0 
-159 106 0 
-16 17 0 
-16 49 0 
-160 -161 12 0 
-160 161 163 0 
-161 162 0 
-163 -64 164 0 
-163 64 215 0 
-164 -77 12 0 
-164 77 165 0 
-165 -79 12 0 
-165 79 166 0 
-166 -81 167 0 
-166 81 215 0 
-167 -84 12 0 
-167 84 168 0 
-168 169 0 
-168 213 0 
-169 170 0 
-169 211 0 
-17 18 0 
-17 47 0 
-170 171 0 
-170 209 0 
-171 172 0 
-171 207 0 
-172 173 0 
-172 205 0 
-173 174 0 
-173 203 0 
-174 175 0 
-174 201 0 
-175 176 0 
-175 199 0 
-176 177 0 
-176 197 0 
-177 178 0 
-177 195 0 
-178 179 0 
-178 193 0 
-179 180 0 
-179 191 0 
-1 2 6 0 
-18 19 0 
-18 45 0 
-180 181 0 
-180 189 0 
-181 182 0 
-181 187 0 
-182 183 0 
-182 185 0 
-183 -184 28 0 
-183 -28 184 0 
-185 -186 30 0 
-185 -30 186 0 
-187 -188 32 0 
-187 -32 188 0 
-189 -190 34 0 
-189 -34 190 0 
-19 20 0 
-19 43 0 
-191 -192 36 0 
-191 -36 192 0 
-193 -194 38 0 
-193 -38 194 0 
-195 -196 40 0 
-195 -40 196 0 
-197 -198 42 0 
-197 -42 198 0 
-199 -200 44 0 
-199 -44 200 0 
-20 21 0 
-20 41 0 
-201 -202 46 0 
-201 -46 202 0 
-203 -204 48 0 
-203 -48 204 0 
-205 -206 50 0 
-205 -50 206 0 
-207 -208 52 0 
-207 -52 208 0 
-209 -210 54 0 
-209 -54 210 0 
-21 22 0 
-21 39 0 
-211 -212 56 0 
-211 -56 212 0 
-213 -214 58 0 
-213 -58 214 0 
-215 216 0 
-215 260 0 
-216 217 0 
-216 258 0 
-217 218 0 
-217 256 0 
-218 219 0 
-218 254 0 
-219 220 0 
-219 252 0 
-22 23 0 
-22 37 0 
-220 221 0 
-220 250 0 
-221 222 0 
-221 248 0 
-222 223 0 
-222 246 0 
-223 224 0 
-223 244 0 
-224 225 0 
-224 242 0 
-225 226 0 
-225 240 0 
-226 227 0 
-226 238 0 
-227 228 0 
-227 236 0 
-228 229 0 
-228 234 0 
-229 230 0 
-229 232 0 
-23 24 0 
-23 35 0 
-230 -231 28 0 
-230 -28 231 0 
-232 -233 30 0 
-232 -30 233 0 
-234 -235 32 0 
-234 -32 235 0 
-236 -237 34 0 
-236 -34 237 0 
-238 -239 36 0 
-238 -36 239 0 
-24 25 0 
-24 33 0 
-240 -241 38 0 
-240 -38 241 0 
-242 -243 40 0 
-242 -40 243 0 
-244 -245 42 0 
-244 -42 245 0 
-246 -247 44 0 
-246 -44 247 0 
-248 -249 46 0 
-248 -46 249 0 
-25 26 0 
-25 31 0 
-250 -251 48 0 
-250 -48 251 0 
-252 -253 50 0 
-252 -50 253 0 
-254 -255 52 0 
-254 -52 255 0 
-256 -257 54 0 
-256 -54 257 0 
-258 -259 56 0 
-258 -56 259 0 
-26 27 0 
-26 29 0 
-260 -261 58 0 
-260 -58 261 0 
-262 263 0 
-262 307 0 
-263 264 0 
-263 305 0 
-264 265 0 
-264 303 0 
-265 266 0 
-265 301 0 
-266 267 0 
-266 299 0 
-267 268 0 
-267 297 0 
-268 269 0 
-268 295 0 
-269 270 0 
-269 293 0 
-27 -28 0 
-270 271 0 
-270 291 0 
-271 272 0 
-271 289 0 
-272 273 0 
-272 287 0 
-273 274 0 
-273 285 0 
-274 275 0 
-274 283 0 
-275 276 0 
-275 281 0 
-276 277 0 
-276 279 0 
-277 -278 28 0 
-277 -28 278 0 
-279 -280 30 0 
-279 -30 280 0 
-2 -3 0 
-281 -282 32 0 
-281 -32 282 0 
-283 -284 34 0 
-283 -34 284 0 
-285 -286 36 0 
-285 -36 286 0 
-287 -288 38 0 
-287 -38 288 0 
-289 -290 40 0 
-289 -40 290 0 
-291 -292 42 0 
-291 -42 292 0 
-293 -294 44 0 
-293 -44 294 0 
-295 -296 46 0 
-295 -46 296 0 
-297 -298 48 0 
-297 -48 298 0 
-299 -300 50 0 
-299 -50 300 0 
-29 -30 0 
-301 -302 52 0 
-301 -52 302 0 
-303 -304 54 0 
-303 -54 304 0 
-305 -306 56 0 
-305 -56 306 0 
-307 -308 58 0 
-307 -58 308 0 
-31 -32 0 
-33 -34 0 
-35 -36 0 
-3 -4 5 0 
-3 -5 4 0 
-37 -38 0 
-39 -40 0 
-41 -42 0 
-43 -44 0 
-45 -46 0 
-47 -48 0 
-49 -50 0 
-51 -52 0 
-53 -54 0 
-55 -56 0 
-57 -58 0 
-59 -60 62 0 
-59 60 262 0 
-60 61 0 
-60 6 0 
-61 8 0 
-62 -63 160 0 
-62 63 262 0 
-63 -64 76 0 
-63 64 145 0 
-64 65 73 0 
-65 66 69 0 
-66 -67 0 
-6 -7 0 
-67 -5 68 0 
-67 -68 5 0 
-69 -70 0 
-70 -71 72 0 
-70 -72 71 0 
-73 -74 0 
-74 -9 75 0 
-74 -75 9 0 
-76 -77 0 
-76 77 78 0 
-7 -9 8 0 
-7 -8 9 0 
-77 5 0 
-78 -79 0 
-78 79 80 0 
-79 71 0 
80 -81 -83 0 
80 -83 -145 0 
80 81 -145 0 
81 -73 -82 0 
82 -9 0 
83 84 -107 0 
84 -85 -105 0 
85 -86 -103 0 
86 -87 -101 0 
87 -88 -99 0 
88 -89 -97 0 
89 -90 -95 0 
10 -11 -12 0 
10 -12 -59 0 
10 11 -59 0 
90 -91 -93 0 
91 92 0 
93 94 0 
95 96 0 
97 98 0 
99 100 0 
11 -4 0 
101 102 0 
103 104 0 
105 -106 0 
107 -108 -141 0 
108 -109 -137 0 
109 -110 -133 0 
110 -111 -129 0 
111 -112 -125 0 
112 -113 -121 0 
113 -114 -117 0 
114 115 0 
115 -116 0 
116 92 0 
117 118 0 
118 -119 120 0 
118 -120 119 0 
119 -94 0 
12 -13 -57 0 
120 -92 0 
121 122 0 
122 -123 124 0 
122 -124 123 0 
123 -96 0 
124 -94 -120 0 
125 126 0 
126 -127 128 0 
126 -128 127 0 
127 -98 0 
128 -96 -124 0 
129 130 0 
13 -14 -55 0 
130 -131 132 0 
130 -132 131 0 
131 -100 0 
132 -98 -128 0 
133 134 0 
134 -135 136 0 
134 -136 135 0 
135 -102 0 
136 -100 -132 0 
137 138 0 
138 -139 140 0 
138 -140 139 0 
139 -104 0 
14 -15 -53 0 
140 -102 -136 0 
141 -142 0 
142 -143 144 0 
142 -144 143 0 
143 -106 0 
144 -104 -140 0 
145 -146 -159 0 
146 -147 -158 0 
147 -148 -157 0 
148 -149 -156 0 
149 -150 -155 0 
15 -16 -51 0 
150 -151 -154 0 
151 -152 -153 0 
152 92 0 
153 94 0 
154 96 0 
155 98 0 
156 100 0 
157 102 0 
158 104 0 
159 -106 0 
16 -17 -49 0 
160 -12 -163 0 
160 -161 -12 0 
160 161 -163 0 
161 -162 0 
163 -164 -215 0 
163 -64 -164 0 
163 64 -215 0 
164 -12 -165 0 
164 -77 -12 0 
164 77 -165 0 
165 -12 -166 0 
165 -79 -12 0 
165 79 -166 0 
166 -81 -167 0 
166 -167 -215 0 
166 81 -215 0 
167 -84 -12 0 
167 -12 -168 0 
167 84 -168 0 
168 -169 -213 0 
169 -170 -211 0 
17 -18 -47 0 
170 -171 -209 0 
171 -172 -207 0 
172 -173 -205 0 
173 -174 -203 0 
174 -175 -201 0 
175 -176 -199 0 
176 -177 -197 0 
177 -178 -195 0 
178 -179 -193 0 
179 -180 -191 0 
1 -2 0 
1 -6 0 
18 -19 -45 0 
180 -181 -189 0 
181 -182 -187 0 
182 -183 -185 0 
183 -28 -184 0 
183 28 184 0 
185 -30 -186 0 
185 30 186 0 
187 -32 -188 0 
187 32 188 0 
189 -34 -190 0 
189 34 190 0 
19 -20 -43 0 
191 -36 -192 0 
191 36 192 0 
193 -38 -194 0 
193 38 194 0 
195 -40 -196 0 
195 40 196 0 
197 -42 -198 0 
197 42 198 0 
199 -44 -200 0 
199 44 200 0 
20 -21 -41 0 
201 -46 -202 0 
201 46 202 0 
203 -48 -204 0 
203 48 204 0 
205 -50 -206 0 
205 50 206 0 
207 -52 -208 0 
207 52 208 0 
209 -54 -210 0 
209 54 210 0 
21 -22 -39 0 
211 -56 -212 0 
211 56 212 0 
213 -58 -214 0 
213 58 214 0 
215 -216 -260 0 
216 -217 -258 0 
217 -218 -256 0 
218 -219 -254 0 
219 -220 -252 0 
22 -23 -37 0 
220 -221 -250 0 
221 -222 -248 0 
222 -223 -246 0 
223 -224 -244 0 
224 -225 -242 0 
225 -226 -240 0 
226 -227 -238 0 
227 -228 -236 0 
228 -229 -234 0 
229 -230 -232 0 
23 -24 -35 0 
230 -28 -231 0 
230 28 231 0 
232 -30 -233 0 
232 30 233 0 
234 -32 -235 0 
234 32 235 0 
236 -34 -237 0 
236 34 237 0 
238 -36 -239 0 
238 36 239 0 
24 -25 -33 0 
240 -38 -241 0 
240 38 241 0 
242 -40 -243 0 
242 40 243 0 
244 -42 -245 0 
244 42 245 0 
246 -44 -247 0 
246 44 247 0 
248 -46 -249 0 
248 46 249 0 
25 -26 -31 0 
250 -48 -251 0 
250 48 251 0 
252 -50 -253 0 
252 50 253 0 
254 -52 -255 0 
254 52 255 0 
256 -54 -257 0 
256 54 257 0 
258 -56 -259 0 
258 56 259 0 
26 -27 -29 0 
260 -58 -261 0 
260 58 261 0 
262 -263 -307 0 
263 -264 -305 0 
264 -265 -303 0 
265 -266 -301 0 
266 -267 -299 0 
267 -268 -297 0 
268 -269 -295 0 
269 -270 -293 0 
27 28 0 
270 -271 -291 0 
271 -272 -289 0 
272 -273 -287 0 
273 -274 -285 0 
274 -275 -283 0 
275 -276 -281 0 
276 -277 -279 0 
277 -28 -278 0 
277 28 278 0 
279 -30 -280 0 
279 30 280 0 
2 3 0 
281 -32 -282 0 
281 32 282 0 
283 -34 -284 0 
283 34 284 0 
285 -36 -286 0 
285 36 286 0 
287 -38 -288 0 
287 38 288 0 
289 -40 -290 0 
289 40 290 0 
291 -42 -292 0 
291 42 292 0 
293 -44 -294 0 
293 44 294 0 
295 -46 -296 0 
295 46 296 0 
297 -48 -298 0 
297 48 298 0 
299 -50 -300 0 
299 50 300 0 
29 30 0 
301 -52 -302 0 
301 52 302 0 
303 -54 -304 0 
303 54 304 0 
305 -56 -306 0 
305 56 306 0 
307 -58 -308 0 
307 58 308 0 
31 32 0 
33 34 0 
35 36 0 
3 -4 -5 0 
3 4 5 0 
37 38 0 
39 40 0 
41 42 0 
43 44 0 
45 46 0 
47 48 0 
49 50 0 
51 52 0 
53 54 0 
55 56 0 
57 58 0 
59 -60 -62 0 
59 -62 -262 0 
59 60 -262 0 
60 -6 -61 0 
61 -8 0 
62 -160 -262 0 
62 -63 -160 0 
62 63 -262 0 
63 -64 -76 0 
63 -76 -145 0 
63 64 -145 0 
64 -65 0 
64 -73 0 
65 -66 0 
65 -69 0 
66 67 0 
6 7 0 
67 -5 -68 0 
67 5 68 0 
69 70 0 
70 -71 -72 0 
70 71 72 0 
73 74 0 
74 -9 -75 0 
74 9 75 0 
76 77 -78 0 
7 -8 -9 0 
7 8 9 0 
77 -5 0 
78 79 -80 0 
79 -71 0 
